
  27    0


   0  11 2 3 4 5 6 10 22 23 24 25 26 
   9   7 21 16 15 14 12 11 8 
   8   5 20 16 13 12 7 
   2   3 19 15 9 
   8   3 18 13 12 
   8   3 17 12 11 
   7   2 14 11 
   6   1 13 
   8   1 11 
   3   1 12 
   7   1 27
   2   1 27
   1   1 27
   9   1 27
   5   1 27
   2   1 27
  10   1 27
   4   1 27
   6   1 27
   9   1 27
   2   1 27
   8   1 27
   6   1 27
   7   1 27
   7   1 27
   8   1 27
   0   0 
